10 45
1 2 16
1 3 0
1 4 11
1 5 13
1 6 1
1 7 4
1 8 6
1 9 5
1 10 6
2 3 22
2 4 13
2 5 5
2 6 2
2 7 26
2 8 7
2 9 15
2 10 4
3 4 14
3 5 3
3 6 28
3 7 27
3 8 26
3 9 26
3 10 6
4 5 20
4 6 11
4 7 17
4 8 21
4 9 10
4 10 9
5 6 0
5 7 27
5 8 6
5 9 19
5 10 2
6 7 15
6 8 9
6 9 3
6 10 19
7 8 26
7 9 28
7 10 19
8 9 2
8 10 12
9 10 0
